NAME: random-28-2282
TYPE: TSP
COMMENT: size=28 seed=2282
DIMENSION: 58
EDGE_WEIGHT_TYPE: EUC_2D
NODE_COORD_SECTION
+0 574 118
-0 574 118
+1 155 851
-1 179 393
+2 436 534
-2 955 835
+3 32 378
-3 47 270
+4 657 579
-4 402 240
+5 502 809
-5 370 693
+6 210 412
-6 695 72
+7 109 270
-7 535 799
+8 478 418
-8 107 903
+9 457 296
-9 411 571
+10 433 930
-10 923 559
+11 328 335
-11 969 16
+12 274 909
-12 679 916
+13 982 539
-13 483 967
+14 798 216
-14 582 360
+15 196 115
-15 652 752
+16 485 377
-16 785 127
+17 482 410
-17 162 870
+18 166 671
-18 354 375
+19 657 394
-19 11 879
+20 247 466
-20 86 845
+21 87 898
-21 650 143
+22 22 567
-22 812 433
+23 163 87
-23 908 902
+24 732 794
-24 258 899
+25 60 605
-25 837 814
+26 184 268
-26 257 429
+27 215 289
-27 278 713
+28 635 646
-28 95 149
PRECEDENCE_SECTION
+0 -0
+1 -1
+2 -2
+3 -3
+4 -4
+5 -5
+6 -6
+7 -7
+8 -8
+9 -9
+10 -10
+11 -11
+12 -12
+13 -13
+14 -14
+15 -15
+16 -16
+17 -17
+18 -18
+19 -19
+20 -20
+21 -21
+22 -22
+23 -23
+24 -24
+25 -25
+26 -26
+27 -27
+28 -28
EOF
